c File: instances/16_0.20_3.col
c
c Description: Random graph of size 16 vertices and P(0.2) of edges between any two vertices.
p col 16 120
e 2 3
e 2 14
e 3 7
e 4 5
e 4 7
e 4 10
e 4 14
e 5 6
e 5 8
e 5 9
e 5 10
e 5 12
e 6 7
e 6 8
e 6 14
e 7 11
e 7 13
e 9 15
e 9 16
e 10 11
e 11 15
e 12 13
e 13 15
e 13 16
e 15 16